### CEA analysis performed on Sun 07-Jun-2026 15:09:57

# Problem Type: "Assigned Enthalpy and Pressure"  

prob case = _______________8028 hp     

# Pressure (1 value):
p,atm= 1

# Equivalence based on Fuel/Oxid. wt ratio (Eq 9.19*) (1 value):
phi = 1

# You selected the following fuels and oxidizers:
reac
fuel CH4              mole= 50.0000  t,k= 300.000 
fuel N2               mole=376.0000  t,k= 300.000 
oxid O2               mole=100.0000  t,k= 300.000 

# You selected these options for output:
# long version of output
# Proportions of any products will be expressed as Mole Fractions.
# Heat will be expressed as siunits
output siunits molef long

### IMPORTANT:  The following line is the end of your CEA input file!
end
